problem_generation/data/GISP/train/er_n=62_m=1192_p=0.60_SET2_setparam=100.00_alpha=0.50_485.lp
maximize
OBJ:100x0 + 100x1 + 100x2 + 100x3 + 100x4 + 100x5 + 100x6 + 100x7 + 100x8 + 100x9 + 100x10 + 100x11 + 100x12 + 100x13 + 100x14 + 100x15 + 100x16 + 100x17 + 100x18 + 100x19 + 100x20 + 100x21 + 100x22 + 100x23 + 100x24 + 100x25 + 100x26 + 100x27 + 100x28 + 100x29 + 100x30 + 100x31 + 100x32 + 100x33 + 100x34 + 100x35 + 100x36 + 100x37 + 100x38 + 100x39 + 100x40 + 100x41 + 100x42 + 100x43 + 100x44 + 100x45 + 100x46 + 100x47 + 100x48 + 100x49 + 100x50 + 100x51 + 100x52 + 100x53 + 100x54 + 100x55 + 100x56 + 100x57 + 100x58 + 100x59 + 100x60 + 100x61 - y7_17 - y36_53 - y15_39 - y18_35 - y29_32 - y0_5 - y40_41 - y8_18 - y21_37 - y48_54 - y0_14 - y40_50 - y10_36 - y2_32 - y44_47 - y44_56 - y2_50 - y14_15 - y22_28 - y3_24 - y14_24 - y3_33 - y14_51 - y18_21 - y36_57 - y17_53 - y28_53 - y18_30 - y5_60 - y48_49 - y0_9 - y21_50 - y21_59 - y10_22 - y10_31 - y33_42 - y25_38 - y3_10 - y51_59 - y2_54 - y14_19 - y43_55 - y22_32 - y13_51 - y3_28 - y14_28 - y24_60 - y14_37 - y28_39 - y47_52 - y9_44 - y17_57 - y29_31 - y29_40 - y6_47 - y21_45 - y10_17 - y10_44 - y2_40 - y32_41 - y32_50 - y43_50 - y32_59 - y43_59 - y13_55 - y16_60 - y17_25 - y5_41 - y17_43 - y28_43 - y9_39 - y17_61 - y50_58 - y6_33 - y21_31 - y6_51 - y21_49 - y2_8 - y39_57 - y31_53 - y54_55 - y2_26 - y25_28 - y2_35 - y32_36 - y13_32 - y24_32 - y3_9 - y43_45 - y24_41 - y14_18 - y32_54 - y24_50 - y16_46 - y5_27 - y17_29 - y17_38 - y28_38 - y47_51 - y5_54 - y28_56 - y6_28 - y21_35 - y2_3 - y10_16 - y20_48 - y10_25 - y39_61 - y20_57 - y31_57 - y54_59 - y2_30 - y24_27 - y4_58 - y13_36 - y43_49 - y1_43 - y32_58 - y13_54 - y24_54 - y35_54 - y9_11 - y17_42 - y28_42 - y27_55 - y6_32 - y21_30 - y10_11 - y20_43 - y31_43 - y12_39 - y23_39 - y31_52 - y12_48 - y23_48 - y20_61 - y4_44 - y12_57 - y16_18 - y24_31 - y43_44 - y16_27 - y13_40 - y24_40 - y24_49 - y5_35 - y28_37 - y9_33 - y5_44 - y27_41 - y6_18 - y8_46 - y19_55 - y39_51 - y2_11 - y39_60 - y12_43 - y20_56 - y1_15 - y4_48 - y23_61 - y24_26 - y4_57 - y24_35 - y24_44 - y5_12 - y46_50 - y17_23 - y57_59 - y38_55 - y7_58 - y18_58 - y30_41 - y27_54 - y30_50 - y0_55 - y31_33 - y23_29 - y20_42 - y12_38 - y20_51 - y4_34 - y12_56 - y23_56 - y34_53 - y1_28 - y37_58 - y1_46 - y38_41 - y5_16 - y9_14 - y38_50 - y49_50 - y7_44 - y7_53 - y27_40 - y0_32 - y11_32 - y27_58 - y11_59 - y4_20 - y12_33 - y4_38 - y4_47 - y24_25 - y37_44 - y45_57 - y56_57 - y37_53 - y16_30 - y5_11 - y15_43 - y26_43 - y57_58 - y7_39 - y49_54 - y15_61 - y0_18 - y8_40 - y27_53 - y0_45 - y11_45 - y30_58 - y41_46 - y41_55 - y52_55 - y20_32 - y12_28 - y23_37 - y1_9 - y22_50 - y3_55 - y15_20 - y15_29 - y26_29 - y18_25 - y15_38 - y38_49 - y15_56 - y26_56 - y7_52 - y8_17 - y0_13 - y18_61 - y8_35 - y11_31 - y30_44 - y0_40 - y11_49 - y33_46 - y44_46 - y44_55 - y2_58 - y25_60 - y22_36 - y34_38 - y22_54 - y14_59 - y37_61 - y7_20 - y26_33 - y26_42 - y7_38 - y7_47 - y8_12 - y7_56 - y19_21 - y48_57 - y29_53 - y8_30 - y19_30 - y6_60 - y11_26 - y33_41 - y44_50 - y25_46 - y2_53 - y3_27 - y14_27 - y37_38 - y45_51 - y22_58 - y7_15 - y15_37 - y26_37 - y26_46 - y7_42 - y0_3 - y48_52 - y11_12 - y29_48 - y48_61 - y0_21 - y29_57 - y11_30 - y33_36 - y10_43 - y33_45 - y25_41 - y2_48 - y25_50 - y22_26 - y2_57 - y3_31 - y3_40 - y14_40 - y15_23 - y47_55 - y17_51 - y7_28 - y7_37 - y6_41 - y6_59 - y40_61 - y33_40 - y33_49 - y44_49 - y10_56 - y3_17 - y14_26 - y13_58 - y14_35 - y36_41 - y15_18 - y7_14 - y47_50 - y17_46 - y18_23 - y9_42 - y9_51 - y9_60 - y21_25 - y48_51 - y21_34 - y21_52 - y21_61 - y2_20 - y54_58 - y10_33 - y10_51 - y51_52 - y3_12 - y3_21 - y3_30 - y17_32 - y7_9 - y17_41 - y28_41 - y9_37 - y17_59 - y9_55 - y6_40 - y29_42 - y40_42 - y21_38 - y6_58 - y39_55 - y25_26 - y2_33 - y51_56 - y24_39 - y14_25 - y16_44 - y13_57 - y24_57 - y36_40 - y9_23 - y5_34 - y47_49 - y17_45 - y28_45 - y47_58 - y5_52 - y6_17 - y17_54 - y9_50 - y28_54 - y6_26 - y39_50 - y10_23 - y2_19 - y31_55 - y23_51 - y13_25 - y24_34 - y32_47 - y1_41 - y13_43 - y16_39 - y16_48 - y13_61 - y16_57 - y17_49 - y9_45 - y5_56 - y9_54 - y21_28 - y42_60 - y39_54 - y2_14 - y20_50 - y12_46 - y20_59 - y12_55 - y13_20 - y13_29 - y1_36 - y24_38 - y43_51 - y16_34 - y35_47 - y24_56 - y35_56 - y46_53 - y9_13 - y49_58 - y17_35 - y28_35 - y5_51 - y27_48 - y6_25 - y8_53 - y11_58 - y20_36 - y39_49 - y20_45 - y23_41 - y12_50 - y23_50 - y23_59 - y1_31 - y32_46 - y35_51 - y5_10 - y1_58 - y38_44 - y17_21 - y46_57 - y9_17 - y38_53 - y5_28 - y15_60 - y5_37 - y8_39 - y19_39 - y50_54 - y19_48 - y0_44 - y11_44 - y30_57 - y42_59 - y23_27 - y2_4 - y39_53 - y23_36 - y20_49 - y4_32 - y12_45 - y31_58 - y4_41 - y23_54 - y13_19 - y4_50 - y13_28 - y4_59 - y1_44 - y16_42 - y38_39 - y38_48 - y57_61 - y49_57 - y5_32 - y7_60 - y8_34 - y27_47 - y0_30 - y30_43 - y0_39 - y19_52 - y30_52 - y11_48 - y20_26 - y0_57 - y11_57 - y20_35 - y20_44 - y31_44 - y23_49 - y34_46 - y13_23 - y53_59 - y4_54 - y34_55 - y1_39 - y14_58 - y37_60 - y5_9 - y38_43 - y15_50 - y26_50 - y38_52 - y7_46 - y38_61 - y7_55 - y27_33 - y27_42 - y27_51 - y0_34 - y42_49 - y0_43 - y19_56 - y11_52 - y20_30 - y4_22 - y44_58 - y4_31 - y53_54 - y34_50 - y45_50 - y22_57 - y56_59 - y14_53 - y26_27 - y15_36 - y46_51 - y18_32 - y38_47 - y15_54 - y38_56 - y7_50 - y48_60 - y11_20 - y30_51 - y12_21 - y44_53 - y12_30 - y23_30 - y4_26 - y10_60 - y34_45 - y1_20 - y37_41 - y45_54 - y3_48 - y37_59 - y7_18 - y26_40 - y38_42 - y7_36 - y8_10 - y7_54 - y8_19 - y18_54 - y0_15 - y40_60 - y8_37 - y11_33 - y0_42 - y41_43 - y41_52 - y25_44 - y4_21 - y44_57 - y2_51 - y22_29 - y2_60 - y14_34 - y22_47 - y34_49 - y37_45 - y22_56 - y14_52 - y3_61 - y18_22 - y59_60 - y15_35 - y7_40 - y0_1 - y48_50 - y19_23 - y48_59 - y11_19 - y25_30 - y25_39 - y10_50 - y33_61 - y3_29 - y22_42 - y3_38 - y14_38 - y22_51 - y3_56
 Subject to
C1: x0+x1-y0_1 <=1 
C2: x0+x3-y0_3 <=1 
C3: x0+x4 <=1 
C4: x0+x5-y0_5 <=1 
C5: x0+x9-y0_9 <=1 
C6: x0+x10 <=1 
C7: x0+x11 <=1 
C8: x0+x13-y0_13 <=1 
C9: x0+x14-y0_14 <=1 
C10: x0+x15-y0_15 <=1 
C11: x0+x16 <=1 
C12: x0+x17 <=1 
C13: x0+x18-y0_18 <=1 
C14: x0+x21-y0_21 <=1 
C15: x0+x24 <=1 
C16: x0+x25 <=1 
C17: x0+x28 <=1 
C18: x0+x29 <=1 
C19: x0+x30-y0_30 <=1 
C20: x0+x32-y0_32 <=1 
C21: x0+x33 <=1 
C22: x0+x34-y0_34 <=1 
C23: x0+x35 <=1 
C24: x0+x39-y0_39 <=1 
C25: x0+x40-y0_40 <=1 
C26: x0+x41 <=1 
C27: x0+x42-y0_42 <=1 
C28: x0+x43-y0_43 <=1 
C29: x0+x44-y0_44 <=1 
C30: x0+x45-y0_45 <=1 
C31: x0+x50 <=1 
C32: x0+x52 <=1 
C33: x0+x53 <=1 
C34: x0+x55-y0_55 <=1 
C35: x0+x57-y0_57 <=1 
C36: x0+x59 <=1 
C37: x0+x60 <=1 
C38: x0+x61 <=1 
C39: x1+x4 <=1 
C40: x1+x5 <=1 
C41: x1+x8 <=1 
C42: x1+x9-y1_9 <=1 
C43: x1+x10 <=1 
C44: x1+x11 <=1 
C45: x1+x15-y1_15 <=1 
C46: x1+x18 <=1 
C47: x1+x19 <=1 
C48: x1+x20-y1_20 <=1 
C49: x1+x21 <=1 
C50: x1+x22 <=1 
C51: x1+x23 <=1 
C52: x1+x25 <=1 
C53: x1+x26 <=1 
C54: x1+x27 <=1 
C55: x1+x28-y1_28 <=1 
C56: x1+x29 <=1 
C57: x1+x31-y1_31 <=1 
C58: x1+x35 <=1 
C59: x1+x36-y1_36 <=1 
C60: x1+x39-y1_39 <=1 
C61: x1+x41-y1_41 <=1 
C62: x1+x43-y1_43 <=1 
C63: x1+x44-y1_44 <=1 
C64: x1+x46-y1_46 <=1 
C65: x1+x47 <=1 
C66: x1+x49 <=1 
C67: x1+x54 <=1 
C68: x1+x56 <=1 
C69: x1+x58-y1_58 <=1 
C70: x1+x59 <=1 
C71: x1+x61 <=1 
C72: x2+x3-y2_3 <=1 
C73: x2+x4-y2_4 <=1 
C74: x2+x8-y2_8 <=1 
C75: x2+x10 <=1 
C76: x2+x11-y2_11 <=1 
C77: x2+x12 <=1 
C78: x2+x13 <=1 
C79: x2+x14-y2_14 <=1 
C80: x2+x16 <=1 
C81: x2+x19-y2_19 <=1 
C82: x2+x20-y2_20 <=1 
C83: x2+x24 <=1 
C84: x2+x25 <=1 
C85: x2+x26-y2_26 <=1 
C86: x2+x30-y2_30 <=1 
C87: x2+x31 <=1 
C88: x2+x32-y2_32 <=1 
C89: x2+x33-y2_33 <=1 
C90: x2+x34 <=1 
C91: x2+x35-y2_35 <=1 
C92: x2+x36 <=1 
C93: x2+x37 <=1 
C94: x2+x40-y2_40 <=1 
C95: x2+x41 <=1 
C96: x2+x43 <=1 
C97: x2+x46 <=1 
C98: x2+x47 <=1 
C99: x2+x48-y2_48 <=1 
C100: x2+x50-y2_50 <=1 
C101: x2+x51-y2_51 <=1 
C102: x2+x52 <=1 
C103: x2+x53-y2_53 <=1 
C104: x2+x54-y2_54 <=1 
C105: x2+x57-y2_57 <=1 
C106: x2+x58-y2_58 <=1 
C107: x2+x59 <=1 
C108: x2+x60-y2_60 <=1 
C109: x3+x4 <=1 
C110: x3+x5 <=1 
C111: x3+x9-y3_9 <=1 
C112: x3+x10-y3_10 <=1 
C113: x3+x12-y3_12 <=1 
C114: x3+x16 <=1 
C115: x3+x17-y3_17 <=1 
C116: x3+x19 <=1 
C117: x3+x21-y3_21 <=1 
C118: x3+x24-y3_24 <=1 
C119: x3+x26 <=1 
C120: x3+x27-y3_27 <=1 
C121: x3+x28-y3_28 <=1 
C122: x3+x29-y3_29 <=1 
C123: x3+x30-y3_30 <=1 
C124: x3+x31-y3_31 <=1 
C125: x3+x33-y3_33 <=1 
C126: x3+x35 <=1 
C127: x3+x36 <=1 
C128: x3+x37 <=1 
C129: x3+x38-y3_38 <=1 
C130: x3+x39 <=1 
C131: x3+x40-y3_40 <=1 
C132: x3+x48-y3_48 <=1 
C133: x3+x49 <=1 
C134: x3+x53 <=1 
C135: x3+x55-y3_55 <=1 
C136: x3+x56-y3_56 <=1 
C137: x3+x57 <=1 
C138: x3+x60 <=1 
C139: x3+x61-y3_61 <=1 
C140: x4+x7 <=1 
C141: x4+x10 <=1 
C142: x4+x11 <=1 
C143: x4+x12 <=1 
C144: x4+x14 <=1 
C145: x4+x15 <=1 
C146: x4+x20-y4_20 <=1 
C147: x4+x21-y4_21 <=1 
C148: x4+x22-y4_22 <=1 
C149: x4+x24 <=1 
C150: x4+x26-y4_26 <=1 
C151: x4+x27 <=1 
C152: x4+x31-y4_31 <=1 
C153: x4+x32-y4_32 <=1 
C154: x4+x34-y4_34 <=1 
C155: x4+x35 <=1 
C156: x4+x38-y4_38 <=1 
C157: x4+x41-y4_41 <=1 
C158: x4+x42 <=1 
C159: x4+x43 <=1 
C160: x4+x44-y4_44 <=1 
C161: x4+x46 <=1 
C162: x4+x47-y4_47 <=1 
C163: x4+x48-y4_48 <=1 
C164: x4+x50-y4_50 <=1 
C165: x4+x52 <=1 
C166: x4+x54-y4_54 <=1 
C167: x4+x55 <=1 
C168: x4+x57-y4_57 <=1 
C169: x4+x58-y4_58 <=1 
C170: x4+x59-y4_59 <=1 
C171: x4+x61 <=1 
C172: x5+x7 <=1 
C173: x5+x9-y5_9 <=1 
C174: x5+x10-y5_10 <=1 
C175: x5+x11-y5_11 <=1 
C176: x5+x12-y5_12 <=1 
C177: x5+x13 <=1 
C178: x5+x16-y5_16 <=1 
C179: x5+x17 <=1 
C180: x5+x18 <=1 
C181: x5+x19 <=1 
C182: x5+x20 <=1 
C183: x5+x25 <=1 
C184: x5+x26 <=1 
C185: x5+x27-y5_27 <=1 
C186: x5+x28-y5_28 <=1 
C187: x5+x29 <=1 
C188: x5+x32-y5_32 <=1 
C189: x5+x33 <=1 
C190: x5+x34-y5_34 <=1 
C191: x5+x35-y5_35 <=1 
C192: x5+x37-y5_37 <=1 
C193: x5+x38 <=1 
C194: x5+x39 <=1 
C195: x5+x41-y5_41 <=1 
C196: x5+x43 <=1 
C197: x5+x44-y5_44 <=1 
C198: x5+x45 <=1 
C199: x5+x46 <=1 
C200: x5+x48 <=1 
C201: x5+x50 <=1 
C202: x5+x51-y5_51 <=1 
C203: x5+x52-y5_52 <=1 
C204: x5+x53 <=1 
C205: x5+x54-y5_54 <=1 
C206: x5+x56-y5_56 <=1 
C207: x5+x59 <=1 
C208: x5+x60-y5_60 <=1 
C209: x6+x16 <=1 
C210: x6+x17-y6_17 <=1 
C211: x6+x18-y6_18 <=1 
C212: x6+x21 <=1 
C213: x6+x22 <=1 
C214: x6+x23 <=1 
C215: x6+x24 <=1 
C216: x6+x25-y6_25 <=1 
C217: x6+x26-y6_26 <=1 
C218: x6+x28-y6_28 <=1 
C219: x6+x30 <=1 
C220: x6+x32-y6_32 <=1 
C221: x6+x33-y6_33 <=1 
C222: x6+x38 <=1 
C223: x6+x40-y6_40 <=1 
C224: x6+x41-y6_41 <=1 
C225: x6+x43 <=1 
C226: x6+x45 <=1 
C227: x6+x47-y6_47 <=1 
C228: x6+x50 <=1 
C229: x6+x51-y6_51 <=1 
C230: x6+x52 <=1 
C231: x6+x54 <=1 
C232: x6+x55 <=1 
C233: x6+x58-y6_58 <=1 
C234: x6+x59-y6_59 <=1 
C235: x6+x60-y6_60 <=1 
C236: x7+x9-y7_9 <=1 
C237: x7+x10 <=1 
C238: x7+x11 <=1 
C239: x7+x12 <=1 
C240: x7+x14-y7_14 <=1 
C241: x7+x15-y7_15 <=1 
C242: x7+x16 <=1 
C243: x7+x17-y7_17 <=1 
C244: x7+x18-y7_18 <=1 
C245: x7+x19 <=1 
C246: x7+x20-y7_20 <=1 
C247: x7+x22 <=1 
C248: x7+x23 <=1 
C249: x7+x24 <=1 
C250: x7+x26 <=1 
C251: x7+x28-y7_28 <=1 
C252: x7+x30 <=1 
C253: x7+x36-y7_36 <=1 
C254: x7+x37-y7_37 <=1 
C255: x7+x38-y7_38 <=1 
C256: x7+x39-y7_39 <=1 
C257: x7+x40-y7_40 <=1 
C258: x7+x41 <=1 
C259: x7+x42-y7_42 <=1 
C260: x7+x44-y7_44 <=1 
C261: x7+x46-y7_46 <=1 
C262: x7+x47-y7_47 <=1 
C263: x7+x49 <=1 
C264: x7+x50-y7_50 <=1 
C265: x7+x52-y7_52 <=1 
C266: x7+x53-y7_53 <=1 
C267: x7+x54-y7_54 <=1 
C268: x7+x55-y7_55 <=1 
C269: x7+x56-y7_56 <=1 
C270: x7+x58-y7_58 <=1 
C271: x7+x60-y7_60 <=1 
C272: x7+x61 <=1 
C273: x8+x10-y8_10 <=1 
C274: x8+x12-y8_12 <=1 
C275: x8+x14 <=1 
C276: x8+x15 <=1 
C277: x8+x17-y8_17 <=1 
C278: x8+x18-y8_18 <=1 
C279: x8+x19-y8_19 <=1 
C280: x8+x21 <=1 
C281: x8+x22 <=1 
C282: x8+x28 <=1 
C283: x8+x30-y8_30 <=1 
C284: x8+x33 <=1 
C285: x8+x34-y8_34 <=1 
C286: x8+x35-y8_35 <=1 
C287: x8+x37-y8_37 <=1 
C288: x8+x38 <=1 
C289: x8+x39-y8_39 <=1 
C290: x8+x40-y8_40 <=1 
C291: x8+x42 <=1 
C292: x8+x43 <=1 
C293: x8+x46-y8_46 <=1 
C294: x8+x51 <=1 
C295: x8+x52 <=1 
C296: x8+x53-y8_53 <=1 
C297: x8+x55 <=1 
C298: x8+x59 <=1 
C299: x8+x60 <=1 
C300: x9+x11-y9_11 <=1 
C301: x9+x13-y9_13 <=1 
C302: x9+x14-y9_14 <=1 
C303: x9+x17-y9_17 <=1 
C304: x9+x19 <=1 
C305: x9+x21 <=1 
C306: x9+x23-y9_23 <=1 
C307: x9+x24 <=1 
C308: x9+x25 <=1 
C309: x9+x27 <=1 
C310: x9+x28 <=1 
C311: x9+x30 <=1 
C312: x9+x31 <=1 
C313: x9+x32 <=1 
C314: x9+x33-y9_33 <=1 
C315: x9+x34 <=1 
C316: x9+x37-y9_37 <=1 
C317: x9+x38 <=1 
C318: x9+x39-y9_39 <=1 
C319: x9+x40 <=1 
C320: x9+x41 <=1 
C321: x9+x42-y9_42 <=1 
C322: x9+x43 <=1 
C323: x9+x44-y9_44 <=1 
C324: x9+x45-y9_45 <=1 
C325: x9+x50-y9_50 <=1 
C326: x9+x51-y9_51 <=1 
C327: x9+x52 <=1 
C328: x9+x54-y9_54 <=1 
C329: x9+x55-y9_55 <=1 
C330: x9+x58 <=1 
C331: x9+x59 <=1 
C332: x9+x60-y9_60 <=1 
C333: x10+x11-y10_11 <=1 
C334: x10+x16-y10_16 <=1 
C335: x10+x17-y10_17 <=1 
C336: x10+x19 <=1 
C337: x10+x20 <=1 
C338: x10+x22-y10_22 <=1 
C339: x10+x23-y10_23 <=1 
C340: x10+x25-y10_25 <=1 
C341: x10+x27 <=1 
C342: x10+x28 <=1 
C343: x10+x29 <=1 
C344: x10+x30 <=1 
C345: x10+x31-y10_31 <=1 
C346: x10+x33-y10_33 <=1 
C347: x10+x36-y10_36 <=1 
C348: x10+x40 <=1 
C349: x10+x41 <=1 
C350: x10+x43-y10_43 <=1 
C351: x10+x44-y10_44 <=1 
C352: x10+x46 <=1 
C353: x10+x47 <=1 
C354: x10+x49 <=1 
C355: x10+x50-y10_50 <=1 
C356: x10+x51-y10_51 <=1 
C357: x10+x53 <=1 
C358: x10+x55 <=1 
C359: x10+x56-y10_56 <=1 
C360: x10+x60-y10_60 <=1 
C361: x11+x12-y11_12 <=1 
C362: x11+x13 <=1 
C363: x11+x16 <=1 
C364: x11+x17 <=1 
C365: x11+x19-y11_19 <=1 
C366: x11+x20-y11_20 <=1 
C367: x11+x21 <=1 
C368: x11+x24 <=1 
C369: x11+x26-y11_26 <=1 
C370: x11+x28 <=1 
C371: x11+x29 <=1 
C372: x11+x30-y11_30 <=1 
C373: x11+x31-y11_31 <=1 
C374: x11+x32-y11_32 <=1 
C375: x11+x33-y11_33 <=1 
C376: x11+x37 <=1 
C377: x11+x38 <=1 
C378: x11+x40 <=1 
C379: x11+x41 <=1 
C380: x11+x42 <=1 
C381: x11+x44-y11_44 <=1 
C382: x11+x45-y11_45 <=1 
C383: x11+x46 <=1 
C384: x11+x48-y11_48 <=1 
C385: x11+x49-y11_49 <=1 
C386: x11+x51 <=1 
C387: x11+x52-y11_52 <=1 
C388: x11+x53 <=1 
C389: x11+x54 <=1 
C390: x11+x57-y11_57 <=1 
C391: x11+x58-y11_58 <=1 
C392: x11+x59-y11_59 <=1 
C393: x11+x60 <=1 
C394: x12+x13 <=1 
C395: x12+x14 <=1 
C396: x12+x15 <=1 
C397: x12+x16 <=1 
C398: x12+x19 <=1 
C399: x12+x21-y12_21 <=1 
C400: x12+x23 <=1 
C401: x12+x28-y12_28 <=1 
C402: x12+x29 <=1 
C403: x12+x30-y12_30 <=1 
C404: x12+x32 <=1 
C405: x12+x33-y12_33 <=1 
C406: x12+x35 <=1 
C407: x12+x36 <=1 
C408: x12+x37 <=1 
C409: x12+x38-y12_38 <=1 
C410: x12+x39-y12_39 <=1 
C411: x12+x40 <=1 
C412: x12+x41 <=1 
C413: x12+x42 <=1 
C414: x12+x43-y12_43 <=1 
C415: x12+x45-y12_45 <=1 
C416: x12+x46-y12_46 <=1 
C417: x12+x48-y12_48 <=1 
C418: x12+x49 <=1 
C419: x12+x50-y12_50 <=1 
C420: x12+x51 <=1 
C421: x12+x52 <=1 
C422: x12+x53 <=1 
C423: x12+x55-y12_55 <=1 
C424: x12+x56-y12_56 <=1 
C425: x12+x57-y12_57 <=1 
C426: x12+x59 <=1 
C427: x13+x14 <=1 
C428: x13+x15 <=1 
C429: x13+x17 <=1 
C430: x13+x18 <=1 
C431: x13+x19-y13_19 <=1 
C432: x13+x20-y13_20 <=1 
C433: x13+x21 <=1 
C434: x13+x23-y13_23 <=1 
C435: x13+x25-y13_25 <=1 
C436: x13+x28-y13_28 <=1 
C437: x13+x29-y13_29 <=1 
C438: x13+x30 <=1 
C439: x13+x32-y13_32 <=1 
C440: x13+x34 <=1 
C441: x13+x35 <=1 
C442: x13+x36-y13_36 <=1 
C443: x13+x38 <=1 
C444: x13+x40-y13_40 <=1 
C445: x13+x41 <=1 
C446: x13+x43-y13_43 <=1 
C447: x13+x49 <=1 
C448: x13+x50 <=1 
C449: x13+x51-y13_51 <=1 
C450: x13+x52 <=1 
C451: x13+x53 <=1 
C452: x13+x54-y13_54 <=1 
C453: x13+x55-y13_55 <=1 
C454: x13+x57-y13_57 <=1 
C455: x13+x58-y13_58 <=1 
C456: x13+x59 <=1 
C457: x13+x60 <=1 
C458: x13+x61-y13_61 <=1 
C459: x14+x15-y14_15 <=1 
C460: x14+x16 <=1 
C461: x14+x17 <=1 
C462: x14+x18-y14_18 <=1 
C463: x14+x19-y14_19 <=1 
C464: x14+x20 <=1 
C465: x14+x23 <=1 
C466: x14+x24-y14_24 <=1 
C467: x14+x25-y14_25 <=1 
C468: x14+x26-y14_26 <=1 
C469: x14+x27-y14_27 <=1 
C470: x14+x28-y14_28 <=1 
C471: x14+x29 <=1 
C472: x14+x31 <=1 
C473: x14+x34-y14_34 <=1 
C474: x14+x35-y14_35 <=1 
C475: x14+x37-y14_37 <=1 
C476: x14+x38-y14_38 <=1 
C477: x14+x39 <=1 
C478: x14+x40-y14_40 <=1 
C479: x14+x41 <=1 
C480: x14+x46 <=1 
C481: x14+x47 <=1 
C482: x14+x49 <=1 
C483: x14+x50 <=1 
C484: x14+x51-y14_51 <=1 
C485: x14+x52-y14_52 <=1 
C486: x14+x53-y14_53 <=1 
C487: x14+x54 <=1 
C488: x14+x56 <=1 
C489: x14+x58-y14_58 <=1 
C490: x14+x59-y14_59 <=1 
C491: x14+x60 <=1 
C492: x15+x16 <=1 
C493: x15+x17 <=1 
C494: x15+x18-y15_18 <=1 
C495: x15+x19 <=1 
C496: x15+x20-y15_20 <=1 
C497: x15+x21 <=1 
C498: x15+x22 <=1 
C499: x15+x23-y15_23 <=1 
C500: x15+x25 <=1 
C501: x15+x26 <=1 
C502: x15+x29-y15_29 <=1 
C503: x15+x30 <=1 
C504: x15+x31 <=1 
C505: x15+x32 <=1 
C506: x15+x34 <=1 
C507: x15+x35-y15_35 <=1 
C508: x15+x36-y15_36 <=1 
C509: x15+x37-y15_37 <=1 
C510: x15+x38-y15_38 <=1 
C511: x15+x39-y15_39 <=1 
C512: x15+x40 <=1 
C513: x15+x43-y15_43 <=1 
C514: x15+x45 <=1 
C515: x15+x46 <=1 
C516: x15+x48 <=1 
C517: x15+x50-y15_50 <=1 
C518: x15+x54-y15_54 <=1 
C519: x15+x56-y15_56 <=1 
C520: x15+x57 <=1 
C521: x15+x58 <=1 
C522: x15+x59 <=1 
C523: x15+x60-y15_60 <=1 
C524: x15+x61-y15_61 <=1 
C525: x16+x18-y16_18 <=1 
C526: x16+x19 <=1 
C527: x16+x20 <=1 
C528: x16+x22 <=1 
C529: x16+x23 <=1 
C530: x16+x25 <=1 
C531: x16+x26 <=1 
C532: x16+x27-y16_27 <=1 
C533: x16+x30-y16_30 <=1 
C534: x16+x33 <=1 
C535: x16+x34-y16_34 <=1 
C536: x16+x36 <=1 
C537: x16+x38 <=1 
C538: x16+x39-y16_39 <=1 
C539: x16+x41 <=1 
C540: x16+x42-y16_42 <=1 
C541: x16+x44-y16_44 <=1 
C542: x16+x46-y16_46 <=1 
C543: x16+x47 <=1 
C544: x16+x48-y16_48 <=1 
C545: x16+x56 <=1 
C546: x16+x57-y16_57 <=1 
C547: x16+x58 <=1 
C548: x16+x59 <=1 
C549: x16+x60-y16_60 <=1 
C550: x17+x21-y17_21 <=1 
C551: x17+x22 <=1 
C552: x17+x23-y17_23 <=1 
C553: x17+x25-y17_25 <=1 
C554: x17+x28 <=1 
C555: x17+x29-y17_29 <=1 
C556: x17+x32-y17_32 <=1 
C557: x17+x33 <=1 
C558: x17+x35-y17_35 <=1 
C559: x17+x37 <=1 
C560: x17+x38-y17_38 <=1 
C561: x17+x39 <=1 
C562: x17+x40 <=1 
C563: x17+x41-y17_41 <=1 
C564: x17+x42-y17_42 <=1 
C565: x17+x43-y17_43 <=1 
C566: x17+x44 <=1 
C567: x17+x45-y17_45 <=1 
C568: x17+x46-y17_46 <=1 
C569: x17+x47 <=1 
C570: x17+x49-y17_49 <=1 
C571: x17+x51-y17_51 <=1 
C572: x17+x53-y17_53 <=1 
C573: x17+x54-y17_54 <=1 
C574: x17+x55 <=1 
C575: x17+x57-y17_57 <=1 
C576: x17+x59-y17_59 <=1 
C577: x17+x61-y17_61 <=1 
C578: x18+x21-y18_21 <=1 
C579: x18+x22-y18_22 <=1 
C580: x18+x23-y18_23 <=1 
C581: x18+x25-y18_25 <=1 
C582: x18+x30-y18_30 <=1 
C583: x18+x31 <=1 
C584: x18+x32-y18_32 <=1 
C585: x18+x33 <=1 
C586: x18+x34 <=1 
C587: x18+x35-y18_35 <=1 
C588: x18+x36 <=1 
C589: x18+x37 <=1 
C590: x18+x38 <=1 
C591: x18+x39 <=1 
C592: x18+x40 <=1 
C593: x18+x42 <=1 
C594: x18+x45 <=1 
C595: x18+x48 <=1 
C596: x18+x49 <=1 
C597: x18+x51 <=1 
C598: x18+x52 <=1 
C599: x18+x54-y18_54 <=1 
C600: x18+x57 <=1 
C601: x18+x58-y18_58 <=1 
C602: x18+x61-y18_61 <=1 
C603: x19+x20 <=1 
C604: x19+x21-y19_21 <=1 
C605: x19+x23-y19_23 <=1 
C606: x19+x24 <=1 
C607: x19+x25 <=1 
C608: x19+x30-y19_30 <=1 
C609: x19+x31 <=1 
C610: x19+x32 <=1 
C611: x19+x37 <=1 
C612: x19+x38 <=1 
C613: x19+x39-y19_39 <=1 
C614: x19+x41 <=1 
C615: x19+x43 <=1 
C616: x19+x44 <=1 
C617: x19+x45 <=1 
C618: x19+x46 <=1 
C619: x19+x47 <=1 
C620: x19+x48-y19_48 <=1 
C621: x19+x50 <=1 
C622: x19+x52-y19_52 <=1 
C623: x19+x53 <=1 
C624: x19+x55-y19_55 <=1 
C625: x19+x56-y19_56 <=1 
C626: x19+x60 <=1 
C627: x19+x61 <=1 
C628: x20+x22 <=1 
C629: x20+x24 <=1 
C630: x20+x25 <=1 
C631: x20+x26-y20_26 <=1 
C632: x20+x27 <=1 
C633: x20+x28 <=1 
C634: x20+x30-y20_30 <=1 
C635: x20+x32-y20_32 <=1 
C636: x20+x33 <=1 
C637: x20+x34 <=1 
C638: x20+x35-y20_35 <=1 
C639: x20+x36-y20_36 <=1 
C640: x20+x37 <=1 
C641: x20+x38 <=1 
C642: x20+x39 <=1 
C643: x20+x42-y20_42 <=1 
C644: x20+x43-y20_43 <=1 
C645: x20+x44-y20_44 <=1 
C646: x20+x45-y20_45 <=1 
C647: x20+x47 <=1 
C648: x20+x48-y20_48 <=1 
C649: x20+x49-y20_49 <=1 
C650: x20+x50-y20_50 <=1 
C651: x20+x51-y20_51 <=1 
C652: x20+x56-y20_56 <=1 
C653: x20+x57-y20_57 <=1 
C654: x20+x58 <=1 
C655: x20+x59-y20_59 <=1 
C656: x20+x60 <=1 
C657: x20+x61-y20_61 <=1 
C658: x21+x22 <=1 
C659: x21+x23 <=1 
C660: x21+x24 <=1 
C661: x21+x25-y21_25 <=1 
C662: x21+x26 <=1 
C663: x21+x27 <=1 
C664: x21+x28-y21_28 <=1 
C665: x21+x30-y21_30 <=1 
C666: x21+x31-y21_31 <=1 
C667: x21+x32 <=1 
C668: x21+x34-y21_34 <=1 
C669: x21+x35-y21_35 <=1 
C670: x21+x36 <=1 
C671: x21+x37-y21_37 <=1 
C672: x21+x38-y21_38 <=1 
C673: x21+x39 <=1 
C674: x21+x40 <=1 
C675: x21+x41 <=1 
C676: x21+x42 <=1 
C677: x21+x43 <=1 
C678: x21+x45-y21_45 <=1 
C679: x21+x46 <=1 
C680: x21+x47 <=1 
C681: x21+x49-y21_49 <=1 
C682: x21+x50-y21_50 <=1 
C683: x21+x52-y21_52 <=1 
C684: x21+x55 <=1 
C685: x21+x57 <=1 
C686: x21+x59-y21_59 <=1 
C687: x21+x60 <=1 
C688: x21+x61-y21_61 <=1 
C689: x22+x26-y22_26 <=1 
C690: x22+x27 <=1 
C691: x22+x28-y22_28 <=1 
C692: x22+x29-y22_29 <=1 
C693: x22+x30 <=1 
C694: x22+x32-y22_32 <=1 
C695: x22+x33 <=1 
C696: x22+x34 <=1 
C697: x22+x35 <=1 
C698: x22+x36-y22_36 <=1 
C699: x22+x38 <=1 
C700: x22+x39 <=1 
C701: x22+x41 <=1 
C702: x22+x42-y22_42 <=1 
C703: x22+x43 <=1 
C704: x22+x44 <=1 
C705: x22+x47-y22_47 <=1 
C706: x22+x49 <=1 
C707: x22+x50-y22_50 <=1 
C708: x22+x51-y22_51 <=1 
C709: x22+x52 <=1 
C710: x22+x54-y22_54 <=1 
C711: x22+x55 <=1 
C712: x22+x56-y22_56 <=1 
C713: x22+x57-y22_57 <=1 
C714: x22+x58-y22_58 <=1 
C715: x22+x59 <=1 
C716: x23+x25 <=1 
C717: x23+x26 <=1 
C718: x23+x27-y23_27 <=1 
C719: x23+x28 <=1 
C720: x23+x29-y23_29 <=1 
C721: x23+x30-y23_30 <=1 
C722: x23+x32 <=1 
C723: x23+x33 <=1 
C724: x23+x34 <=1 
C725: x23+x35 <=1 
C726: x23+x36-y23_36 <=1 
C727: x23+x37-y23_37 <=1 
C728: x23+x39-y23_39 <=1 
C729: x23+x40 <=1 
C730: x23+x41-y23_41 <=1 
C731: x23+x42 <=1 
C732: x23+x45 <=1 
C733: x23+x48-y23_48 <=1 
C734: x23+x49-y23_49 <=1 
C735: x23+x50-y23_50 <=1 
C736: x23+x51-y23_51 <=1 
C737: x23+x53 <=1 
C738: x23+x54-y23_54 <=1 
C739: x23+x55 <=1 
C740: x23+x56-y23_56 <=1 
C741: x23+x57 <=1 
C742: x23+x59-y23_59 <=1 
C743: x23+x61-y23_61 <=1 
C744: x24+x25-y24_25 <=1 
C745: x24+x26-y24_26 <=1 
C746: x24+x27-y24_27 <=1 
C747: x24+x30 <=1 
C748: x24+x31-y24_31 <=1 
C749: x24+x32-y24_32 <=1 
C750: x24+x33 <=1 
C751: x24+x34-y24_34 <=1 
C752: x24+x35-y24_35 <=1 
C753: x24+x38-y24_38 <=1 
C754: x24+x39-y24_39 <=1 
C755: x24+x40-y24_40 <=1 
C756: x24+x41-y24_41 <=1 
C757: x24+x42 <=1 
C758: x24+x44-y24_44 <=1 
C759: x24+x46 <=1 
C760: x24+x49-y24_49 <=1 
C761: x24+x50-y24_50 <=1 
C762: x24+x51 <=1 
C763: x24+x53 <=1 
C764: x24+x54-y24_54 <=1 
C765: x24+x55 <=1 
C766: x24+x56-y24_56 <=1 
C767: x24+x57-y24_57 <=1 
C768: x24+x58 <=1 
C769: x24+x60-y24_60 <=1 
C770: x24+x61 <=1 
C771: x25+x26-y25_26 <=1 
C772: x25+x27 <=1 
C773: x25+x28-y25_28 <=1 
C774: x25+x30-y25_30 <=1 
C775: x25+x31 <=1 
C776: x25+x33 <=1 
C777: x25+x34 <=1 
C778: x25+x36 <=1 
C779: x25+x37 <=1 
C780: x25+x38-y25_38 <=1 
C781: x25+x39-y25_39 <=1 
C782: x25+x41-y25_41 <=1 
C783: x25+x43 <=1 
C784: x25+x44-y25_44 <=1 
C785: x25+x45 <=1 
C786: x25+x46-y25_46 <=1 
C787: x25+x47 <=1 
C788: x25+x50-y25_50 <=1 
C789: x25+x51 <=1 
C790: x25+x52 <=1 
C791: x25+x53 <=1 
C792: x25+x55 <=1 
C793: x25+x56 <=1 
C794: x25+x57 <=1 
C795: x25+x58 <=1 
C796: x25+x59 <=1 
C797: x25+x60-y25_60 <=1 
C798: x26+x27-y26_27 <=1 
C799: x26+x29-y26_29 <=1 
C800: x26+x30 <=1 
C801: x26+x31 <=1 
C802: x26+x33-y26_33 <=1 
C803: x26+x37-y26_37 <=1 
C804: x26+x38 <=1 
C805: x26+x39 <=1 
C806: x26+x40-y26_40 <=1 
C807: x26+x42-y26_42 <=1 
C808: x26+x43-y26_43 <=1 
C809: x26+x46-y26_46 <=1 
C810: x26+x50-y26_50 <=1 
C811: x26+x51 <=1 
C812: x26+x54 <=1 
C813: x26+x55 <=1 
C814: x26+x56-y26_56 <=1 
C815: x26+x57 <=1 
C816: x26+x59 <=1 
C817: x26+x61 <=1 
C818: x27+x28 <=1 
C819: x27+x30 <=1 
C820: x27+x31 <=1 
C821: x27+x32 <=1 
C822: x27+x33-y27_33 <=1 
C823: x27+x35 <=1 
C824: x27+x36 <=1 
C825: x27+x37 <=1 
C826: x27+x38 <=1 
C827: x27+x39 <=1 
C828: x27+x40-y27_40 <=1 
C829: x27+x41-y27_41 <=1 
C830: x27+x42-y27_42 <=1 
C831: x27+x43 <=1 
C832: x27+x45 <=1 
C833: x27+x46 <=1 
C834: x27+x47-y27_47 <=1 
C835: x27+x48-y27_48 <=1 
C836: x27+x51-y27_51 <=1 
C837: x27+x53-y27_53 <=1 
C838: x27+x54-y27_54 <=1 
C839: x27+x55-y27_55 <=1 
C840: x27+x58-y27_58 <=1 
C841: x28+x31 <=1 
C842: x28+x34 <=1 
C843: x28+x35-y28_35 <=1 
C844: x28+x36 <=1 
C845: x28+x37-y28_37 <=1 
C846: x28+x38-y28_38 <=1 
C847: x28+x39-y28_39 <=1 
C848: x28+x41-y28_41 <=1 
C849: x28+x42-y28_42 <=1 
C850: x28+x43-y28_43 <=1 
C851: x28+x44 <=1 
C852: x28+x45-y28_45 <=1 
C853: x28+x47 <=1 
C854: x28+x48 <=1 
C855: x28+x51 <=1 
C856: x28+x52 <=1 
C857: x28+x53-y28_53 <=1 
C858: x28+x54-y28_54 <=1 
C859: x28+x55 <=1 
C860: x28+x56-y28_56 <=1 
C861: x28+x57 <=1 
C862: x28+x58 <=1 
C863: x29+x31-y29_31 <=1 
C864: x29+x32-y29_32 <=1 
C865: x29+x33 <=1 
C866: x29+x35 <=1 
C867: x29+x37 <=1 
C868: x29+x38 <=1 
C869: x29+x40-y29_40 <=1 
C870: x29+x41 <=1 
C871: x29+x42-y29_42 <=1 
C872: x29+x43 <=1 
C873: x29+x44 <=1 
C874: x29+x48-y29_48 <=1 
C875: x29+x49 <=1 
C876: x29+x53-y29_53 <=1 
C877: x29+x57-y29_57 <=1 
C878: x29+x58 <=1 
C879: x29+x59 <=1 
C880: x29+x60 <=1 
C881: x29+x61 <=1 
C882: x30+x33 <=1 
C883: x30+x35 <=1 
C884: x30+x36 <=1 
C885: x30+x41-y30_41 <=1 
C886: x30+x42 <=1 
C887: x30+x43-y30_43 <=1 
C888: x30+x44-y30_44 <=1 
C889: x30+x45 <=1 
C890: x30+x46 <=1 
C891: x30+x47 <=1 
C892: x30+x50-y30_50 <=1 
C893: x30+x51-y30_51 <=1 
C894: x30+x52-y30_52 <=1 
C895: x30+x56 <=1 
C896: x30+x57-y30_57 <=1 
C897: x30+x58-y30_58 <=1 
C898: x30+x59 <=1 
C899: x30+x60 <=1 
C900: x31+x32 <=1 
C901: x31+x33-y31_33 <=1 
C902: x31+x34 <=1 
C903: x31+x35 <=1 
C904: x31+x38 <=1 
C905: x31+x43-y31_43 <=1 
C906: x31+x44-y31_44 <=1 
C907: x31+x45 <=1 
C908: x31+x46 <=1 
C909: x31+x47 <=1 
C910: x31+x51 <=1 
C911: x31+x52-y31_52 <=1 
C912: x31+x53-y31_53 <=1 
C913: x31+x54 <=1 
C914: x31+x55-y31_55 <=1 
C915: x31+x57-y31_57 <=1 
C916: x31+x58-y31_58 <=1 
C917: x31+x59 <=1 
C918: x31+x61 <=1 
C919: x32+x33 <=1 
C920: x32+x35 <=1 
C921: x32+x36-y32_36 <=1 
C922: x32+x37 <=1 
C923: x32+x38 <=1 
C924: x32+x40 <=1 
C925: x32+x41-y32_41 <=1 
C926: x32+x44 <=1 
C927: x32+x46-y32_46 <=1 
C928: x32+x47-y32_47 <=1 
C929: x32+x49 <=1 
C930: x32+x50-y32_50 <=1 
C931: x32+x52 <=1 
C932: x32+x54-y32_54 <=1 
C933: x32+x55 <=1 
C934: x32+x58-y32_58 <=1 
C935: x32+x59-y32_59 <=1 
C936: x33+x36-y33_36 <=1 
C937: x33+x38 <=1 
C938: x33+x40-y33_40 <=1 
C939: x33+x41-y33_41 <=1 
C940: x33+x42-y33_42 <=1 
C941: x33+x45-y33_45 <=1 
C942: x33+x46-y33_46 <=1 
C943: x33+x49-y33_49 <=1 
C944: x33+x54 <=1 
C945: x33+x56 <=1 
C946: x33+x58 <=1 
C947: x33+x59 <=1 
C948: x33+x60 <=1 
C949: x33+x61-y33_61 <=1 
C950: x34+x37 <=1 
C951: x34+x38-y34_38 <=1 
C952: x34+x40 <=1 
C953: x34+x41 <=1 
C954: x34+x42 <=1 
C955: x34+x45-y34_45 <=1 
C956: x34+x46-y34_46 <=1 
C957: x34+x47 <=1 
C958: x34+x49-y34_49 <=1 
C959: x34+x50-y34_50 <=1 
C960: x34+x52 <=1 
C961: x34+x53-y34_53 <=1 
C962: x34+x54 <=1 
C963: x34+x55-y34_55 <=1 
C964: x34+x56 <=1 
C965: x34+x57 <=1 
C966: x34+x60 <=1 
C967: x35+x37 <=1 
C968: x35+x40 <=1 
C969: x35+x42 <=1 
C970: x35+x45 <=1 
C971: x35+x47-y35_47 <=1 
C972: x35+x48 <=1 
C973: x35+x49 <=1 
C974: x35+x51-y35_51 <=1 
C975: x35+x53 <=1 
C976: x35+x54-y35_54 <=1 
C977: x35+x55 <=1 
C978: x35+x56-y35_56 <=1 
C979: x35+x57 <=1 
C980: x35+x58 <=1 
C981: x35+x59 <=1 
C982: x35+x60 <=1 
C983: x35+x61 <=1 
C984: x36+x37 <=1 
C985: x36+x38 <=1 
C986: x36+x39 <=1 
C987: x36+x40-y36_40 <=1 
C988: x36+x41-y36_41 <=1 
C989: x36+x42 <=1 
C990: x36+x44 <=1 
C991: x36+x45 <=1 
C992: x36+x47 <=1 
C993: x36+x50 <=1 
C994: x36+x51 <=1 
C995: x36+x53-y36_53 <=1 
C996: x36+x54 <=1 
C997: x36+x56 <=1 
C998: x36+x57-y36_57 <=1 
C999: x36+x58 <=1 
C1000: x37+x38-y37_38 <=1 
C1001: x37+x39 <=1 
C1002: x37+x41-y37_41 <=1 
C1003: x37+x42 <=1 
C1004: x37+x43 <=1 
C1005: x37+x44-y37_44 <=1 
C1006: x37+x45-y37_45 <=1 
C1007: x37+x46 <=1 
C1008: x37+x47 <=1 
C1009: x37+x48 <=1 
C1010: x37+x50 <=1 
C1011: x37+x51 <=1 
C1012: x37+x52 <=1 
C1013: x37+x53-y37_53 <=1 
C1014: x37+x55 <=1 
C1015: x37+x56 <=1 
C1016: x37+x58-y37_58 <=1 
C1017: x37+x59-y37_59 <=1 
C1018: x37+x60-y37_60 <=1 
C1019: x37+x61-y37_61 <=1 
C1020: x38+x39-y38_39 <=1 
C1021: x38+x41-y38_41 <=1 
C1022: x38+x42-y38_42 <=1 
C1023: x38+x43-y38_43 <=1 
C1024: x38+x44-y38_44 <=1 
C1025: x38+x45 <=1 
C1026: x38+x46 <=1 
C1027: x38+x47-y38_47 <=1 
C1028: x38+x48-y38_48 <=1 
C1029: x38+x49-y38_49 <=1 
C1030: x38+x50-y38_50 <=1 
C1031: x38+x52-y38_52 <=1 
C1032: x38+x53-y38_53 <=1 
C1033: x38+x54 <=1 
C1034: x38+x55-y38_55 <=1 
C1035: x38+x56-y38_56 <=1 
C1036: x38+x58 <=1 
C1037: x38+x61-y38_61 <=1 
C1038: x39+x41 <=1 
C1039: x39+x43 <=1 
C1040: x39+x44 <=1 
C1041: x39+x49-y39_49 <=1 
C1042: x39+x50-y39_50 <=1 
C1043: x39+x51-y39_51 <=1 
C1044: x39+x52 <=1 
C1045: x39+x53-y39_53 <=1 
C1046: x39+x54-y39_54 <=1 
C1047: x39+x55-y39_55 <=1 
C1048: x39+x57-y39_57 <=1 
C1049: x39+x58 <=1 
C1050: x39+x60-y39_60 <=1 
C1051: x39+x61-y39_61 <=1 
C1052: x40+x41-y40_41 <=1 
C1053: x40+x42-y40_42 <=1 
C1054: x40+x43 <=1 
C1055: x40+x44 <=1 
C1056: x40+x45 <=1 
C1057: x40+x47 <=1 
C1058: x40+x48 <=1 
C1059: x40+x49 <=1 
C1060: x40+x50-y40_50 <=1 
C1061: x40+x51 <=1 
C1062: x40+x56 <=1 
C1063: x40+x59 <=1 
C1064: x40+x60-y40_60 <=1 
C1065: x40+x61-y40_61 <=1 
C1066: x41+x43-y41_43 <=1 
C1067: x41+x44 <=1 
C1068: x41+x46-y41_46 <=1 
C1069: x41+x47 <=1 
C1070: x41+x48 <=1 
C1071: x41+x52-y41_52 <=1 
C1072: x41+x55-y41_55 <=1 
C1073: x41+x58 <=1 
C1074: x41+x60 <=1 
C1075: x42+x43 <=1 
C1076: x42+x49-y42_49 <=1 
C1077: x42+x51 <=1 
C1078: x42+x52 <=1 
C1079: x42+x56 <=1 
C1080: x42+x57 <=1 
C1081: x42+x58 <=1 
C1082: x42+x59-y42_59 <=1 
C1083: x42+x60-y42_60 <=1 
C1084: x42+x61 <=1 
C1085: x43+x44-y43_44 <=1 
C1086: x43+x45-y43_45 <=1 
C1087: x43+x46 <=1 
C1088: x43+x47 <=1 
C1089: x43+x49-y43_49 <=1 
C1090: x43+x50-y43_50 <=1 
C1091: x43+x51-y43_51 <=1 
C1092: x43+x52 <=1 
C1093: x43+x55-y43_55 <=1 
C1094: x43+x57 <=1 
C1095: x43+x59-y43_59 <=1 
C1096: x44+x46-y44_46 <=1 
C1097: x44+x47-y44_47 <=1 
C1098: x44+x48 <=1 
C1099: x44+x49-y44_49 <=1 
C1100: x44+x50-y44_50 <=1 
C1101: x44+x53-y44_53 <=1 
C1102: x44+x55-y44_55 <=1 
C1103: x44+x56-y44_56 <=1 
C1104: x44+x57-y44_57 <=1 
C1105: x44+x58-y44_58 <=1 
C1106: x44+x59 <=1 
C1107: x45+x47 <=1 
C1108: x45+x50-y45_50 <=1 
C1109: x45+x51-y45_51 <=1 
C1110: x45+x52 <=1 
C1111: x45+x53 <=1 
C1112: x45+x54-y45_54 <=1 
C1113: x45+x56 <=1 
C1114: x45+x57-y45_57 <=1 
C1115: x45+x59 <=1 
C1116: x45+x60 <=1 
C1117: x45+x61 <=1 
C1118: x46+x48 <=1 
C1119: x46+x50-y46_50 <=1 
C1120: x46+x51-y46_51 <=1 
C1121: x46+x52 <=1 
C1122: x46+x53-y46_53 <=1 
C1123: x46+x54 <=1 
C1124: x46+x57-y46_57 <=1 
C1125: x46+x58 <=1 
C1126: x46+x60 <=1 
C1127: x46+x61 <=1 
C1128: x47+x49-y47_49 <=1 
C1129: x47+x50-y47_50 <=1 
C1130: x47+x51-y47_51 <=1 
C1131: x47+x52-y47_52 <=1 
C1132: x47+x55-y47_55 <=1 
C1133: x47+x58-y47_58 <=1 
C1134: x48+x49-y48_49 <=1 
C1135: x48+x50-y48_50 <=1 
C1136: x48+x51-y48_51 <=1 
C1137: x48+x52-y48_52 <=1 
C1138: x48+x53 <=1 
C1139: x48+x54-y48_54 <=1 
C1140: x48+x57-y48_57 <=1 
C1141: x48+x59-y48_59 <=1 
C1142: x48+x60-y48_60 <=1 
C1143: x48+x61-y48_61 <=1 
C1144: x49+x50-y49_50 <=1 
C1145: x49+x51 <=1 
C1146: x49+x52 <=1 
C1147: x49+x54-y49_54 <=1 
C1148: x49+x55 <=1 
C1149: x49+x56 <=1 
C1150: x49+x57-y49_57 <=1 
C1151: x49+x58-y49_58 <=1 
C1152: x49+x59 <=1 
C1153: x50+x54-y50_54 <=1 
C1154: x50+x55 <=1 
C1155: x50+x56 <=1 
C1156: x50+x58-y50_58 <=1 
C1157: x50+x61 <=1 
C1158: x51+x52-y51_52 <=1 
C1159: x51+x55 <=1 
C1160: x51+x56-y51_56 <=1 
C1161: x51+x57 <=1 
C1162: x51+x58 <=1 
C1163: x51+x59-y51_59 <=1 
C1164: x52+x55-y52_55 <=1 
C1165: x52+x57 <=1 
C1166: x52+x58 <=1 
C1167: x52+x59 <=1 
C1168: x52+x60 <=1 
C1169: x53+x54-y53_54 <=1 
C1170: x53+x55 <=1 
C1171: x53+x57 <=1 
C1172: x53+x58 <=1 
C1173: x53+x59-y53_59 <=1 
C1174: x53+x60 <=1 
C1175: x53+x61 <=1 
C1176: x54+x55-y54_55 <=1 
C1177: x54+x56 <=1 
C1178: x54+x58-y54_58 <=1 
C1179: x54+x59-y54_59 <=1 
C1180: x54+x61 <=1 
C1181: x55+x58 <=1 
C1182: x56+x57-y56_57 <=1 
C1183: x56+x59-y56_59 <=1 
C1184: x56+x60 <=1 
C1185: x57+x58-y57_58 <=1 
C1186: x57+x59-y57_59 <=1 
C1187: x57+x60 <=1 
C1188: x57+x61-y57_61 <=1 
C1189: x58+x60 <=1 
C1190: x58+x61 <=1 
C1191: x59+x60-y59_60 <=1 
C1192: x60+x61 <=1 

binary
x0
x1
x2
x3
x4
x5
x6
x7
x8
x9
x10
x11
x12
x13
x14
x15
x16
x17
x18
x19
x20
x21
x22
x23
x24
x25
x26
x27
x28
x29
x30
x31
x32
x33
x34
x35
x36
x37
x38
x39
x40
x41
x42
x43
x44
x45
x46
x47
x48
x49
x50
x51
x52
x53
x54
x55
x56
x57
x58
x59
x60
x61
