problem_generation/data/GISP/train/er_n=62_m=1192_p=0.60_SET2_setparam=100.00_alpha=0.50_485.sol
objective value:                                 1179
x2                                                  1 	(obj:100)
x4                                                  1 	(obj:100)
x6                                                  1 	(obj:100)
x8                                                  1 	(obj:100)
x9                                                  1 	(obj:100)
x17                                                 1 	(obj:100)
x18                                                 1 	(obj:100)
x20                                                 1 	(obj:100)
x26                                                 1 	(obj:100)
x29                                                 1 	(obj:100)
x53                                                 1 	(obj:100)
x56                                                 1 	(obj:100)
y8_18                                               1 	(obj:-1)
y17_53                                              1 	(obj:-1)
y2_8                                                1 	(obj:-1)
y2_26                                               1 	(obj:-1)
y17_29                                              1 	(obj:-1)
y6_18                                               1 	(obj:-1)
y20_56                                              1 	(obj:-1)
y4_20                                               1 	(obj:-1)
y26_29                                              1 	(obj:-1)
y26_56                                              1 	(obj:-1)
y8_17                                               1 	(obj:-1)
y29_53                                              1 	(obj:-1)
y2_53                                               1 	(obj:-1)
y2_20                                               1 	(obj:-1)
y6_17                                               1 	(obj:-1)
y6_26                                               1 	(obj:-1)
y8_53                                               1 	(obj:-1)
y9_17                                               1 	(obj:-1)
y2_4                                                1 	(obj:-1)
y20_26                                              1 	(obj:-1)
y4_26                                               1 	(obj:-1)
